SystemLabel	siesta

NumberOfSpecies	1
NumberOfAtoms	72

%block ChemicalSpecieslabel
    1 6 C
%endblock ChemicalSpecieslabel

LatticeConstant	1.0 Ang
%block LatticeVectors
    7.404912871775752     0.000000000000000     0.000000000000000 
    0.000000000000000     25.651370639072731     0.000000000000000 
    0.000000000000000     0.000000000000000     20.000000000000000 
%endblock LatticeVectors

AtomicCoordinatesFormat  Ang
%block AtomicCoordinatesAndAtomicSpecies
     0.617076073     24.226294492     10.000000000 1
     5.553684654      1.425076147     10.000000000 1
     6.787836799      0.712538073     10.000000000 1
     6.787836799     24.938832566     10.000000000 1
     5.553684654     24.226294492     10.000000000 1
     3.085380363     22.801218346     10.000000000 1
     4.319532509     22.088680273     10.000000000 1
     5.553684654      2.850152293     10.000000000 1
     4.319532509     20.663604126     10.000000000 1
     3.085380363     18.525989906     10.000000000 1
     4.319532509     17.813451833     10.000000000 1
     4.319532509     16.388375686     10.000000000 1
     3.085380363     15.675837613     10.000000000 1
     3.085380363     14.250761466     10.000000000 1
     4.319532509     13.538223393     10.000000000 1
     3.085380363     19.951066053     10.000000000 1
     4.319532509     12.113147246     10.000000000 1
     6.787836799      3.562690367     10.000000000 1
     5.553684654      5.700304586     10.000000000 1
     6.787836799     20.663604126     10.000000000 1
     5.553684654     19.951066053     10.000000000 1
     5.553684654     18.525989906     10.000000000 1
     6.787836799     17.813451833     10.000000000 1
     6.787836799     16.388375686     10.000000000 1
     5.553684654     15.675837613     10.000000000 1
     6.787836799      4.987766513     10.000000000 1
     5.553684654     14.250761466     10.000000000 1
     6.787836799     12.113147246     10.000000000 1
     5.553684654     11.400609173     10.000000000 1
     5.553684654      9.975533026     10.000000000 1
     6.787836799      9.262994953     10.000000000 1
     6.787836799      7.837918806     10.000000000 1
     5.553684654      7.125380733     10.000000000 1
     6.787836799     13.538223393     10.000000000 1
     3.085380363     11.400609173     10.000000000 1
     3.085380363      9.975533026     10.000000000 1
     4.319532509      9.262994953     10.000000000 1
     1.851228218     13.538223393     10.000000000 1
     1.851228218     12.113147246     10.000000000 1
     0.617076073     11.400609173     10.000000000 1
     0.617076073      9.975533026     10.000000000 1
     1.851228218      9.262994953     10.000000000 1
     1.851228218      7.837918806     10.000000000 1
     0.617076073     14.250761466     10.000000000 1
     0.617076073      7.125380733     10.000000000 1
     1.851228218      4.987766513     10.000000000 1
     1.851228218      3.562690367     10.000000000 1
     0.617076073      2.850152293     10.000000000 1
     0.617076073      1.425076147     10.000000000 1
     1.851228218      0.712538073     10.000000000 1
     1.851228218     24.938832566     10.000000000 1
     0.617076073      5.700304586     10.000000000 1
     0.617076073     15.675837613     10.000000000 1
     1.851228218     16.388375686     10.000000000 1
     1.851228218     17.813451833     10.000000000 1
     4.319532509      7.837918806     10.000000000 1
     3.085380363      7.125380733     10.000000000 1
     3.085380363      5.700304586     10.000000000 1
     4.319532509      4.987766513     10.000000000 1
     4.319532509      3.562690367     10.000000000 1
     3.085380363      2.850152293     10.000000000 1
     3.085380363      1.425076147     10.000000000 1
     4.319532509      0.712538073     10.000000000 1
     4.319532509     24.938832566     10.000000000 1
     3.085380363     24.226294492     10.000000000 1
     0.617076073     22.801218346     10.000000000 1
     1.851228218     22.088680273     10.000000000 1
     1.851228218     20.663604126     10.000000000 1
     0.617076073     19.951066053     10.000000000 1
     0.617076073     18.525989906     10.000000000 1
     6.787836799     22.088680273     10.000000000 1
     5.553684654     22.801218346     10.000000000 1
%endblock AtomicCoordinatesAndAtomicSpecies


###K-Point Mesh###
%block kgrid_Monkhorst_Pack
40   0   0   0.0
0   10   0   0.0
0   0   1   0.0
%endblock kgrid_Monkhorst_Pack


###LEAD PARAMS###
MeshCutoff          250 Ry
PAO.BasisType       split
PAO.BasisSize       DZP
PAO.EnergyShift     0.1 eV
XC.functional VDW
XC.authors KBM
MaxSCFIterations    2000
SCF.MustConverge    T
DM.MixingWeight     0.1
DM.NumberPulay      20
DM.Tolerance        1.d-5
DM.UseSaveDM        T
ElectronicTemperature 300 K
DirectPhi           T

###PARALLELIZATION###
Diag.ParallelOverK  T

###MOLECULAR DYNAMICS###
MD.TypeOfRun        CG
MD.NumCGsteps       0
MD.UseSaveXV        T
MD.UseSaveCG        T

###SAVE H and S###
SaveHS              T

