SystemLabel	siesta

NumberOfSpecies	4
NumberOfAtoms	27

%block ChemicalSpecieslabel
    1 6 C
    2 1 H
    3 7 N
    4 8 O
%endblock ChemicalSpecieslabel

LatticeConstant	1.0 Ang
%block LatticeVectors
    27.626420000000000     0.000000000000000     0.000000000000000 
    0.000000000000000     23.922540000000005     0.000000000000000 
    0.000000000000000     0.000000000000000     27.514050000000001 
%endblock LatticeVectors

AtomicCoordinatesFormat  Ang
%block AtomicCoordinatesAndAtomicSpecies
    13.737440000     11.197490000     11.810380000 1
    16.547910000     11.489650000     11.761880000 1
    15.888170000     10.733210000     10.788670000 1
    14.503380000     10.588010000     10.810160000 1
    14.378170000     11.967730000     12.802450000 1
    15.033300000     13.276400000     14.523980000 1
    13.917040000     12.716210000     13.933050000 1
    15.766230000     12.095230000     12.753320000 1
    12.490940000     12.878730000     14.370570000 1
    12.359280000     11.652780000     16.581510000 1
    11.927610000     11.652780000     15.105100000 1
    12.403540000     13.770500000     15.005610000 2
    12.259070000     10.715560000     14.641850000 2
    17.087700000     13.173930000     14.007080000 2
    15.134470000     13.922540000     15.386570000 2
    10.124890000     10.799440000     14.670300000 2
    12.656060000     11.079480000     11.811820000 2
    10.124890000     12.506120000     14.670300000 2
    14.006910000     10.000000000     10.041910000 2
    16.464640000     10.255020000     10.000000000 2
    17.626420000     11.605210000     11.737460000 2
    11.889670000     13.091410000     13.476830000 2
    10.000000000     11.926110000     15.967420000 2
    10.464040000     11.652780000     15.105100000 3
    16.136640000     12.896490000     13.807460000 3
    11.555690000     11.652780000     17.514050000 4
    13.686560000     11.652780000     16.833560000 4
%endblock AtomicCoordinatesAndAtomicSpecies


###K-Point Mesh###
%block kgrid_Monkhorst_Pack
1   0   0   0.0
0   1   0   0.0
0   0   1   0.0
%endblock kgrid_Monkhorst_Pack


###SCF PARAMS###
MeshCutoff          250 Ry
PAO.BasisType       split
PAO.BasisSize       DZP
PAO.EnergyShift     0.1 eV
XC.functional VDW
XC.authors KBM
MaxSCFIterations    1000
SCF.MustConverge    T
DM.MixingWeight     0.1
DM.NumberPulay      20
DM.Tolerance        1.d-5
DM.UseSaveDM        T
ElectronicTemperature 300 K
DirectPhi           T

###DIAGONALIZATION###
SolutionMethod      diagon

###DIAG-ALGORITHM###
Diag.Algorithm ELPA # MRRR

###CACHE WAVEFUNC###
# Diag.WFS.Cache cdf

###K-PARALLELIZATION###
Diag.ParallelOverK  F

###MOLECULAR DYNAMICS###
MD.TypeOfRun        CG
MD.NumCGsteps       2000
MD.MaxForceTol      0.01 eV/Ang
MD.VariableCell     F
MD.UseSaveXV        T
MD.UseSaveCG        T

###MOLECULAR DYNAMICS###
WriteForces         T
WriteMDHistory      T
WriteMDXMol         T

