SystemLabel	siesta

NumberOfSpecies	4
NumberOfAtoms	27

%block ChemicalSpecieslabel
    1 6 C
    2 1 H
    3 7 N
    4 8 O
%endblock ChemicalSpecieslabel

LatticeConstant	1.0 Ang
%block LatticeVectors
    28.479480000000002     0.000000000000000     0.000000000000000 
    0.000000000000000     24.143619999999999     0.000000000000000 
    0.000000000000000     0.000000000000000     27.833050000000000 
%endblock LatticeVectors

AtomicCoordinatesFormat  Ang
%block AtomicCoordinatesAndAtomicSpecies
    14.387950000     13.165690000     13.384260000 1
    11.924630000     10.931550000     15.424370000 1
    12.357060000     10.931550000     16.901950000 1
    12.463880000     12.154150000     14.667030000 1
    13.946570000     12.039280000     14.313090000 1
    16.420790000     13.144570000     11.920000000 1
    10.000000000     11.200800000     16.288240000 2
    18.380360000     12.817670000     12.321340000 2
    18.479480000     13.056650000     10.949650000 2
    12.257260000     10.000000000     14.951260000 2
    16.418350000     12.809340000     13.926270000 2
    10.125450000     10.078210000     14.989570000 2
    16.538660000     13.471540000     10.000000000 2
    14.225890000     14.143620000     13.848870000 2
    14.931330000     13.590960000     10.678270000 2
    14.556450000     12.069600000     15.222150000 2
    14.144890000     11.075180000     13.828730000 2
    11.896760000     12.286000000     13.736930000 2
    12.299820000     13.064600000     15.258190000 2
    10.125450000     11.784890000     14.989570000 2
    13.828520000     13.127140000     12.445030000 2
    10.464600000     10.931550000     15.424370000 3
    15.820370000     13.013340000     13.129480000 3
    17.681800000     13.038830000     11.599150000 3
    15.914220000     13.421910000     10.790390000 3
    11.553110000     10.931550000     17.833050000 4
    13.684090000     10.931550000     17.155300000 4
%endblock AtomicCoordinatesAndAtomicSpecies


###K-Point Mesh###
%block kgrid_Monkhorst_Pack
1   0   0   0.0
0   1   0   0.0
0   0   1   0.0
%endblock kgrid_Monkhorst_Pack


###SCF PARAMS###
MeshCutoff          250 Ry
PAO.BasisType       split
PAO.BasisSize       DZP
PAO.EnergyShift     0.1 eV
XC.functional VDW
XC.authors KBM
MaxSCFIterations    1000
SCF.MustConverge    T
DM.MixingWeight     0.1
DM.NumberPulay      20
DM.Tolerance        1.d-5
DM.UseSaveDM        T
ElectronicTemperature 300 K
DirectPhi           T

###DIAGONALIZATION###
SolutionMethod      diagon

###DIAG-ALGORITHM###
Diag.Algorithm ELPA # MRRR

###CACHE WAVEFUNC###
# Diag.WFS.Cache cdf

###K-PARALLELIZATION###
Diag.ParallelOverK  F

###MOLECULAR DYNAMICS###
MD.TypeOfRun        CG
MD.NumCGsteps       2000
MD.MaxForceTol      0.01 eV/Ang
MD.VariableCell     F
MD.UseSaveXV        T
MD.UseSaveCG        T

###MOLECULAR DYNAMICS###
WriteForces         T
WriteMDHistory      T
WriteMDXMol         T

